# Objective value = 3.0026440945202080e+02
x[0] 0
x[1] 1
x[2] 0
x[3] 1
x[4] 0
x[5] 1
x[6] 1
x[7] 1
x[8] 0
x[9] 0
x[10] 1
x[11] 0
x[12] 0
x[13] 0
x[14] 1
x[15] 0
x[16] 1
x[17] 0
x[18] 1
x[19] 0
x[20] 1
x[21] 1
x[22] 0
x[23] 1
x[24] 0
x[25] 0
x[26] 1
x[27] 0
x[28] 1
x[29] 0
x[30] 0
x[31] 1
x[32] 0
x[33] 0
x[34] 1
x[35] 0
x[36] 0
x[37] 0
x[38] 1
x[39] 1
x[40] 0
x[41] 1
x[42] 0
x[43] 0
x[44] 0
x[45] 0
x[46] 1
x[47] 0
x[48] 1
x[49] 1
x[50] 0
x[51] 1
x[52] 1
x[53] 0
x[54] 0
x[55] 1
x[56] 0
x[57] 1
x[58] 1
x[59] 1
x[60] 0
x[61] 0
x[62] 1
x[63] 0
x[64] 0
x[65] 0
x[66] 0
x[67] 1
x[68] 1
x[69] 0
x[70] 1
x[71] 1
x[72] 0
x[73] 1
x[74] 0
x[75] 1
x[76] 0
x[77] 1
x[78] 1
x[79] 0
x[80] 0
x[81] 1
x[82] 0
x[83] 1
x[84] 0
x[85] 1
x[86] 1
x[87] 1
x[88] 1
x[89] 0
x[90] 0
x[91] 1
x[92] 1
x[93] 0
x[94] 0
x[95] 0
x[96] 1
x[97] 0
x[98] 0
x[99] 0
x[100] 1
x[101] 0
x[102] 0
x[103] 1
x[104] 0
x[105] 1
x[106] 1
x[107] 1
x[108] 0
x[109] 0
x[110] 1
x[111] 1
x[112] 0
x[113] 0
x[114] 1
x[115] 1
x[116] 0
x[117] 1
x[118] 1
x[119] 1
x[120] 0
x[121] 1
x[122] 0
x[123] 1
x[124] 0
x[125] 1
x[126] 1
x[127] 1
x[128] 0
x[129] 0
x[130] 1
x[131] 0
x[132] 1
x[133] 1
x[134] 0
x[135] 0
x[136] 0
x[137] 1
x[138] 0
x[139] 0
x[140] 0
x[141] 0
x[142] 0
x[143] 1
x[144] 0
x[145] 1
x[146] 0
x[147] 1
x[148] 0
x[149] 0
x[150] 1
x[151] 0
x[152] 1
x[153] 1
x[154] 1
x[155] 1
x[156] 1
x[157] 0
x[158] 0
x[159] 0
x[160] 0
x[161] 0
x[162] 1
x[163] 0
x[164] 1
x[165] 1
x[166] 1
x[167] 1
x[168] 1
x[169] 0
x[170] 1
x[171] 1
x[172] 0
x[173] 1
x[174] 1
x[175] 1
x[176] 1
x[177] 1
x[178] 0
x[179] 1
x[180] 0
x[181] 0
x[182] 0
x[183] 1
x[184] 1
x[185] 0
x[186] 1
x[187] 1
x[188] 1
x[189] 0
x[190] 0
x[191] 0
x[192] 1
x[193] 0
x[194] 1
x[195] 0
x[196] 0
x[197] 0
x[198] 1
x[199] 1
x[200] 0
x[201] 0
x[202] 0
x[203] 0
x[204] 1
x[205] 1
x[206] 1
x[207] 0
x[208] 1
x[209] 0
x[210] 0
x[211] 1
x[212] 1
x[213] 0
x[214] 0
x[215] 1
x[216] 1
x[217] 0
x[218] 1
x[219] 1
x[220] 1
x[221] 0
x[222] 0
x[223] 0
x[224] 0
x[225] 0
x[226] 0
x[227] 0
x[228] 0
x[229] 1
x[230] 1
x[231] 0
x[232] 0
x[233] 0
x[234] 1
x[235] 0
x[236] 0
x[237] 1
x[238] 0
x[239] 1
x[240] 0
x[241] 0
x[242] 0
x[243] 0
x[244] 1
x[245] 1
x[246] 1
x[247] 0
x[248] 0
x[249] 1
x[250] 1
x[251] 1
x[252] 1
x[253] 0
x[254] 1
x[255] 1
x[256] 1
x[257] 1
x[258] 0
x[259] 0
x[260] 1
x[261] 0
x[262] 1
x[263] 0
x[264] 0
x[265] 0
x[266] 0
x[267] 1
x[268] 0
x[269] 0
x[270] 1
x[271] 0
x[272] 0
x[273] 1
x[274] 1
x[275] 1
x[276] 0
x[277] 0
x[278] 1
x[279] 1
x[280] 0
x[281] 1
x[282] 1
x[283] 1
x[284] 0
x[285] 0
x[286] 0
x[287] 1
x[288] 0
x[289] 1
x[290] 0
x[291] 0
x[292] 0
x[293] 0
x[294] 1
x[295] 1
x[296] 1
x[297] 1
x[298] 1
x[299] 1
x[300] 1
x[301] 1
x[302] 1
x[303] 0
x[304] 0
x[305] 0
x[306] 1
x[307] 0
x[308] 0
x[309] 1
x[310] 0
x[311] 0
x[312] 1
x[313] 0
x[314] 1
x[315] 0
x[316] 0
x[317] 0
x[318] 0
x[319] 0
x[320] 1
x[321] 0
x[322] 1
x[323] 1
x[324] 0
x[325] 0
x[326] 0
x[327] 0
x[328] 0
x[329] 0
x[330] 1
x[331] 1
x[332] 1
x[333] 0
x[334] 0
x[335] 0
x[336] 1
x[337] 1
x[338] 1
x[339] 0
x[340] 1
x[341] 0
x[342] 0
x[343] 1
x[344] 0
x[345] 0
x[346] 1
x[347] 1
x[348] 0
x[349] 0
x[350] 0
x[351] 1
x[352] 1
x[353] 0
x[354] 0
x[355] 1
x[356] 1
x[357] 0
x[358] 1
x[359] 0
x[360] 0
x[361] 0
x[362] 1
x[363] 0
x[364] 1
x[365] 0
x[366] 1
x[367] 1
x[368] 0
x[369] 0
x[370] 0
x[371] 1
x[372] 0
x[373] 0
x[374] 0
x[375] 0
x[376] 0
x[377] 1
x[378] 1
x[379] 0
x[380] 0
x[381] 1
x[382] 1
x[383] 0
x[384] 0
x[385] 1
x[386] 0
x[387] 0
x[388] 0
x[389] 1
x[390] 1
x[391] 0
x[392] 0
x[393] 0
x[394] 1
x[395] 0
x[396] 0
x[397] 1
x[398] 0
x[399] 0
x[400] 1
x[401] 0
x[402] 0
x[403] 1
x[404] 1
x[405] 1
x[406] 1
x[407] 0
x[408] 1
x[409] 1
x[410] 1
x[411] 0
x[412] 0
x[413] 0
x[414] 1
x[415] 0
x[416] 1
x[417] 1
x[418] 0
x[419] 0
x[420] 0
x[421] 1
x[422] 1
x[423] 0
x[424] 0
x[425] 0
x[426] 1
x[427] 0
x[428] 0
x[429] 1
x[430] 1
x[431] 0
x[432] 0
x[433] 1
x[434] 1
x[435] 0
x[436] 0
x[437] 0
x[438] 1
x[439] 1
x[440] 1
x[441] 0
x[442] 0
x[443] 0
x[444] 1
x[445] 0
x[446] 1
x[447] 1
x[448] 0
x[449] 1
x[450] 1
x[451] 1
x[452] 1
x[453] 0
x[454] 1
x[455] 0
x[456] 0
x[457] 1
x[458] 0
x[459] 1
x[460] 1
x[461] 1
x[462] 1
x[463] 0
x[464] 0
x[465] 1
x[466] 0
x[467] 1
x[468] 0
x[469] 0
x[470] 0
x[471] 0
x[472] 1
x[473] 1
x[474] 0
x[475] 1
x[476] 1
x[477] 0
x[478] 0
x[479] 0
x[480] 1
x[481] 1
x[482] 0
x[483] 1
x[484] 1
x[485] 0
x[486] 0
x[487] 0
x[488] 0
x[489] 1
x[490] 1
x[491] 1
x[492] 0
x[493] 0
x[494] 0
x[495] 0
x[496] 1
x[497] 0
x[498] 0
x[499] 0
x[500] 0
x[501] 1
x[502] 0
x[503] 1
x[504] 0
x[505] 0
x[506] 0
x[507] 0
x[508] 1
x[509] 1
x[510] 0
x[511] 0
x[512] 0
x[513] 0
x[514] 1
x[515] 0
x[516] 1
x[517] 1
x[518] 1
x[519] 1
x[520] 0
x[521] 1
x[522] 1
x[523] 0
x[524] 0
x[525] 0
x[526] 0
x[527] 0
x[528] 0
x[529] 1
x[530] 1
x[531] 1
x[532] 1
x[533] 0
x[534] 1
x[535] 0
x[536] 1
x[537] 0
x[538] 0
x[539] 1
x[540] 0
x[541] 0
x[542] 0
x[543] 1
x[544] 1
x[545] 1
x[546] 1
x[547] 0
x[548] 0
x[549] 1
x[550] 1
x[551] 0
x[552] 0
x[553] 1
x[554] 1
x[555] 0
x[556] 0
x[557] 0
x[558] 1
x[559] 0
x[560] 0
x[561] 0
x[562] 1
x[563] 0
x[564] 1
x[565] 1
x[566] 1
x[567] 1
x[568] 1
x[569] 0
x[570] 0
x[571] 0
x[572] 1
x[573] 0
x[574] 0
x[575] 1
x[576] 1
x[577] 0
x[578] 1
x[579] 1
x[580] 0
x[581] 0
x[582] 0
x[583] 1
x[584] 0
x[585] 1
x[586] 1
x[587] 1
x[588] 0
x[589] 0
x[590] 0
x[591] 0
x[592] 1
x[593] 1
x[594] 1
x[595] 1
x[596] 0
x[597] 0
x[598] 1
x[599] 0
x[600] 0
x[601] 0
x[602] 1
x[603] 1
x[604] 1
x[605] 0
x[606] 0
x[607] 0
x[608] 1
x[609] 1
x[610] 1
x[611] 0
x[612] 1
x[613] 1
x[614] 1
x[615] 1
x[616] 0
x[617] 1
x[618] 0
x[619] 1
x[620] 0
x[621] 0
x[622] 0
x[623] 0
x[624] 1
x[625] 1
x[626] 1
x[627] 0
x[628] 0
x[629] 1
x[630] 0
x[631] 0
x[632] 0
x[633] 0
x[634] 0
x[635] 1
x[636] 0
x[637] 0
x[638] 0
x[639] 0
x[640] 0
x[641] 0
x[642] 0
x[643] 0
x[644] 1
x[645] 1
x[646] 1
x[647] 1
x[648] 1
x[649] 1
x[650] 0
x[651] 1
x[652] 0
x[653] 0
x[654] 0
x[655] 1
x[656] 1
x[657] 1
x[658] 0
x[659] 0
x[660] 0
x[661] 1
x[662] 1
x[663] 0
x[664] 0
x[665] 0
x[666] 0
x[667] 0
x[668] 0
x[669] 1
x[670] 0
x[671] 0
x[672] 0
x[673] 0
x[674] 0
x[675] 0
x[676] 0
x[677] 1
x[678] 0
x[679] 0
x[680] 1
x[681] 0
x[682] 1
x[683] 0
x[684] 0
x[685] 1
x[686] 0
x[687] 0
x[688] 0
x[689] 1
x[690] 1
x[691] 1
x[692] 0
x[693] 1
x[694] 1
x[695] 0
x[696] 0
x[697] 0
x[698] 0
x[699] 0
x[700] 0
x[701] 1
x[702] 0
x[703] 0
x[704] 1
x[705] 0
x[706] 0
x[707] 0
x[708] 0
x[709] 0
x[710] 1
x[711] 0
x[712] 1
x[713] 0
x[714] 0
x[715] 0
x[716] 0
x[717] 0
x[718] 0
x[719] 1
x[720] 1
x[721] 0
x[722] 0
x[723] 0
x[724] 0
x[725] 0
x[726] 0
x[727] 0
x[728] 0
x[729] 0
x[730] 0
x[731] 0
x[732] 0
x[733] 1
x[734] 0
x[735] 1
x[736] 0
x[737] 1
x[738] 0
x[739] 0
x[740] 0
x[741] 1
x[742] 1
x[743] 1
x[744] 1
x[745] 0
x[746] 1
x[747] 0
x[748] 1
x[749] 1
x[750] 0
x[751] 0
x[752] 1
x[753] 1
x[754] 0
x[755] 0
x[756] 0
x[757] 0
x[758] 1
x[759] 1
x[760] 0
x[761] 1
x[762] 0
x[763] 1
x[764] 0
x[765] 1
x[766] 0
x[767] 0
x[768] 1
x[769] 0
x[770] 0
x[771] 0
x[772] 1
x[773] 0
x[774] 0
x[775] 1
x[776] 1
x[777] 0
x[778] 0
x[779] 1
x[780] 1
x[781] 1
x[782] 1
x[783] 1
x[784] 0
x[785] 1
x[786] 1
x[787] 1
x[788] 1
x[789] 0
x[790] 1
x[791] 1
x[792] 0
x[793] 0
x[794] 1
x[795] 0
x[796] 0
x[797] 0
x[798] 0
x[799] 1
x[800] 0
x[801] 1
x[802] 0
x[803] 1
x[804] 1
x[805] 0
x[806] 1
x[807] 1
x[808] 1
x[809] 0
x[810] 1
x[811] 1
x[812] 0
x[813] 0
x[814] 0
x[815] 0
x[816] 0
x[817] 1
x[818] 0
x[819] 0
x[820] 1
x[821] 0
x[822] 0
x[823] 1
x[824] 1
x[825] 0
x[826] 1
x[827] 0
x[828] 1
x[829] 1
x[830] 1
x[831] 1
x[832] 1
x[833] 0
x[834] 1
x[835] 1
x[836] 0
x[837] 1
x[838] 0
x[839] 1
x[840] 0
x[841] 0
x[842] 0
x[843] 0
x[844] 1
x[845] 1
x[846] 0
x[847] 0
x[848] 1
x[849] 1
x[850] 1
x[851] 1
x[852] 1
x[853] 1
x[854] 1
x[855] 1
x[856] 1
x[857] 0
x[858] 0
x[859] 0
x[860] 0
x[861] 0
x[862] 0
x[863] 0
x[864] 1
x[865] 0
x[866] 0
x[867] 1
x[868] 1
x[869] 0
x[870] 0
x[871] 0
x[872] 1
x[873] 1
x[874] 1
x[875] 1
x[876] 0
x[877] 1
x[878] 0
x[879] 0
x[880] 0
x[881] 1
x[882] 1
x[883] 1
x[884] 1
x[885] 0
x[886] 1
x[887] 1
x[888] 1
x[889] 1
x[890] 1
x[891] 0
x[892] 1
x[893] 1
x[894] 1
x[895] 0
x[896] 0
x[897] 0
x[898] 1
x[899] 1
x[900] 1
x[901] 0
x[902] 1
x[903] 0
x[904] 1
x[905] 0
x[906] 1
x[907] 0
x[908] 1
x[909] 1
x[910] 1
x[911] 0
x[912] 0
x[913] 1
x[914] 0
x[915] 0
x[916] 1
x[917] 1
x[918] 0
x[919] 0
x[920] 1
x[921] 1
x[922] 1
x[923] 1
x[924] 1
x[925] 0
x[926] 1
x[927] 1
x[928] 1
x[929] 0
x[930] 1
x[931] 1
x[932] 1
x[933] 0
x[934] 1
x[935] 1
x[936] 0
x[937] 1
x[938] 0
x[939] 1
x[940] 1
x[941] 1
x[942] 1
x[943] 1
x[944] 0
x[945] 1
x[946] 0
x[947] 1
x[948] 0
x[949] 0
x[950] 1
x[951] 1
x[952] 1
x[953] 0
x[954] 1
x[955] 1
x[956] 0
x[957] 0
x[958] 1
x[959] 0
x[960] 1
x[961] 0
x[962] 1
x[963] 1
x[964] 0
x[965] 0
x[966] 1
x[967] 0
x[968] 0
x[969] 1
x[970] 0
x[971] 0
x[972] 1
x[973] 0
x[974] 1
x[975] 1
x[976] 0
x[977] 1
x[978] 0
x[979] 1
x[980] 0
x[981] 1
x[982] 0
x[983] 1
x[984] 1
x[985] 1
x[986] 1
x[987] 1
x[988] 0
x[989] 1
x[990] 0
x[991] 1
x[992] 0
x[993] 1
x[994] 1
x[995] 1
x[996] 1
x[997] 0
x[998] 1
x[999] 0
